NAME : eil101.tsp
COMMENT : Optimal tour for eil101.tsp
TYPE : TOUR
DIMENSION : 101
Total Length: 713.2333159173689
TOUR_SECTION
1
50
76
77
68
80
12
28
27
101
53
58
40
26
21
72
74
73
2
57
87
97
95
13
94
96
99
59
92
37
98
93
85
91
100
42
14
44
16
61
86
38
43
15
41
22
75
56
23
67
39
4
25
55
54
24
29
3
79
78
34
81
33
9
51
20
30
70
31
88
69
52
89
6
18
60
5
84
17
45
83
8
46
47
36
49
64
11
19
48
82
7
62
10
63
90
32
66
65
71
35
-1
EOF
